NAME = file175,
TOURSIZE = 175,
LENGTH = 25693,
53,58,74,75,76,77,149,150,158,169,170,162,115,156,116,105,106,72,71,73,48,84,101,164,154,153,152,175,118,151,107,93,91,90,163,129,127,128,130,131,132,113,160,103,104,89,69,70,30,29,28,62,60,88,134,120,122,123,124,125,126,12,14,23,24,65,26,25,3,18,19,20,21,22,63,55,57,15,16,49,83,45,46,47,52,54,56,86,99,82,42,43,44,97,157,166,117,165,161,167,155,111,110,109,95,108,94,92,100,41,40,39,37,8,7,5,6,1,2,4,32,31,119,27,11,10,9,13,17,59,61,64,67,66,68,139,138,137,136,142,143,144,145,146,133,140,121,135,141,96,78,35,36,34,33,79,80,38,81,98,148,159,114,171,168,172,173,174,112,147,85,102,87,51,50